% From Helmut Simonis' paper
% "Dominoes as a Constraint Problem" 
% page 1
%
r = 7;
c = 8;
high = 6;
board = array2d(1..r, 1..c, 
     [
       0,5,2,2,5,4,6,5,
       3,6,2,2,4,4,4,1,
       3,6,1,2,3,4,6,1,
       0,1,4,3,0,2,2,1,
       3,5,3,0,3,1,5,6,
       6,4,0,3,6,0,4,1,
       1,6,0,0,2,5,5,5
     ])
;
